proyfinal/src/viki/013/experimentInOfficeAgust.take6.output/6f6d1977-d0f6-4e27-910c-b5a624f86f3e.als.out
Reading from standard input... Use '--help' for help.
============================[ Problem Statistics ]=============================
|                                                                             |
|  Number of variables:         87638                                         |
|  Number of clauses:          161767                                         |
|  Parse time:                   0.03 s                                       |
|                                                                             |
============================[ Search Statistics ]==============================
| Conflicts |          ORIGINAL         |          LEARNT          | Progress |
|           |    Vars  Clauses Literals |    Limit  Clauses Lit/Cl |          |
===============================================================================
|       100 |   63335   108570   271303 |    39809      100     10 | 27.731 % |
|       250 |   63335   108570   271303 |    43789      250     35 | 27.731 % |
|       475 |   54647    82623   207313 |    48168      471     34 | 37.645 % |
|       812 |   54647    82535   207102 |    52985      774     49 | 37.645 % |
|      1318 |   54631    82473   206951 |    58284     1277     60 | 37.663 % |
|      2077 |   54630    82429   206861 |    64112     2033     67 | 37.664 % |
|      3216 |   54612    82355   206690 |    70524     3168     90 | 37.685 % |
|      4924 |   54605    82299   206577 |    77576     4868     82 | 37.693 % |
|      7486 |   54468    82204   206360 |    85334     7424     84 | 37.849 % |
|     11330 |   54165    80646   202615 |    93867    11127     83 | 38.195 % |
|     17096 |   54068    80241   201653 |   103254    16435     80 | 38.305 % |
===============================================================================
restarts              : 63
conflicts             : 18429          (7069 /sec)
decisions             : 62118          (0.00 % random) (23826 /sec)
propagations          : 26691343       (10237743 /sec)
conflict literals     : 1387665        (41.65 % deleted)
Memory used           : 33.96 MB
CPU time              : 2.60715 s

INDETERMINATE
